0001 35
0002 28
0003 33
0004 14
0005 33
0006 35
0007 7
0008 13
0009 20
0010 32
0011 5
0012 34
0013 32
0014 31
0015 27
0016 10
0017 35
0018 31
0019 4
0020 3
0021 4
0022 4
0023 28
0024 7
0025 34
0026 26
0027 31
0028 2
0029 6
0030 21
0031 34
0032 22
0033 29
0034 32
0035 2
0036 35
0037 6
0038 30
0039 4
0040 34
0041 35
0042 5
0043 1
0044 2
0045 34
0046 35
0047 28
0048 30
0049 22
0050 21
0051 31
0052 31
0053 27
0054 26
0055 2
0056 35
0057 34
0058 35
0059 32
0060 11
0061 31
0062 19
0063 11
0064 15
0065 24
0066 31
0067 16
0068 21
0069 11
0070 30
0071 19
0072 16
0073 5
0074 4
0075 6
0076 31
0077 29
0078 9
0079 9
0080 2
0081 8
0082 13
0083 3
0084 1
0085 33
0086 5
0087 15
0088 24
0089 1
0090 9
0091 27
0092 27
0093 31
0094 29
0095 3
0096 24
0097 31
0098 3
0099 30
0100 30
0101 18
0102 26
0103 25
0104 30
0105 26
0106 23
0107 7
0108 13
0109 32
0110 22
0111 9
0112 27
0113 17
0114 7
0115 28
0116 15
0117 19
0118 31
0119 4
0120 11
0121 2
0122 34
0123 29
0124 35
0125 16
0126 19
0127 22
0128 1
0129 33
0130 9
0131 8
0132 23
0133 17
0134 29
0135 1
0136 11
0137 8
0138 35
0139 30
0140 6
0141 1
0142 9
0143 8
0144 3
0145 16
0146 4
0147 10
0148 18
0149 7
0150 26
0151 2
0152 24
0153 4
0154 9
0155 28
0156 8
0157 26
0158 5
0159 3
0160 34
0161 13
0162 34
0163 32
0164 30
0165 33
0166 28
0167 13
0168 1
0169 12
0170 6
0171 17
0172 13
0173 25
0174 14
0175 32
0176 1
0177 33
0178 26
0179 1
0180 18
0181 5
0182 2
0183 5
0184 11
0185 14
0186 33
0187 17
0188 10
0189 35
0190 31
0191 12
0192 20
0193 7
0194 21
0195 17
0196 14
0197 29
0198 3
0199 35
0200 7
0201 33
0202 4
0203 30
0204 25
0205 6
0206 8
0207 21
0208 26
0209 32
0210 1
0211 23
0212 5
0213 34
0214 5
0215 10
0216 30
0217 33
0218 2
0219 24
0220 20
0221 22
0222 23
0223 1
0224 6
0225 31
0226 1
0227 35
0228 19
0229 10
0230 9
0231 32
0232 35
0233 35
0234 28
0235 35
0236 2
0237 10
0238 25
0239 7
0240 25
0241 15
0242 21
0243 23
0244 16
0245 26
0246 28
0247 24
0248 11
0249 2
0250 20
0251 10
0252 17
0253 5
0254 32
0255 19
0256 32
0257 22
0258 14
0259 16
0260 8
0261 33
0262 11
0263 2
0264 7
0265 9
0266 2
0267 6
0268 34
0269 31
0270 3
0271 34
0272 35
0273 21
0274 3
0275 9
0276 1
0277 10
0278 13
0279 4
0280 6
0281 5
0282 32
0283 2
0284 12
0285 6
0286 21
0287 31
0288 25
0289 11
0290 29
0291 1
0292 34
0293 35
0294 1
0295 13
0296 33
0297 2
0298 2
0299 4
0300 5
0301 10
0302 18
0303 12
0304 7
0305 35
0306 20
0307 32
0308 2
0309 32
0310 2
0311 1
0312 20
0313 31
0314 23
0315 1
0316 34
0317 30
0318 2
0319 27
0320 31
0321 31
0322 35
0323 35
0324 29
0325 29
0326 35
0327 34
0328 29
0329 35
0330 25
0331 6
0332 30
0333 20
0334 1
0335 35
0336 14
0337 33
0338 22
0339 16
0340 4
0341 31
0342 33
0343 34
0344 16
0345 3
0346 1
0347 13
0348 35
0349 11
0350 6
0351 26
0352 10
0353 35
0354 35
0355 8
0356 12
0357 16
0358 6
0359 21
0360 33
0361 27
0362 5
0363 23
0364 33
0365 6
0366 1
0367 35
0368 32
0369 3
0370 1
0371 12
0372 27
0373 9
0374 3
0375 28
0376 4
0377 1
0378 35
0379 5
0380 12
0381 2
0382 15
0383 29
0384 29
0385 12
0386 28
0387 5
0388 32
0389 1
0390 6
0391 10
0392 16
0393 24
0394 14
0395 33
0396 34
0397 35
0398 3
0399 27
0400 4
0401 26
0402 10
0403 30
0404 9
0405 34
0406 1
0407 32
0408 30
0409 8
0410 17
0411 6
0412 19
0413 5
0414 35
0415 1
0416 22
0417 34
0418 9
0419 12
0420 19
0421 33
0422 1
0423 3
0424 32
0425 6
0426 7
0427 2
0428 1
0429 35
0430 33
0431 34
0432 24
0433 19
0434 34
0435 20
0436 8
0437 3
0438 33
0439 24
0440 16
0441 24
0442 25
0443 13
0444 7
0445 15
0446 10
0447 5
0448 14
0449 2
0450 25
0451 32
0452 24
0453 4
0454 31
0455 17
0456 31
0457 30
0458 5
0459 4
0460 33
0461 1
0462 23
0463 9
0464 15
0465 15
0466 32
0467 26
0468 25
0469 30
0470 2
0471 35
0472 4
0473 3
0474 35
0475 34
0476 1
0477 33
0478 35
0479 3
0480 1
0481 20
0482 27
0483 15
0484 18
0485 35
0486 5
0487 6
0488 33
0489 34
0490 1
0491 12
0492 3
0493 29
0494 9
0495 28
0496 32
0497 31
0498 4
0499 20
0500 2
0501 33
0502 34
0503 25
0504 4
0505 8
0506 2
0507 4
0508 28
0509 18
0510 23
0511 34
0512 35
0513 1
0514 1
0515 3
0516 14
0517 18
0518 1
0519 19
0520 8
0521 12
0522 7
0523 30
0524 35
0525 29
0526 4
0527 35
0528 1
0529 2
0530 8
0531 9
0532 34
0533 3
0534 35
0535 22
0536 26
0537 2
0538 4
0539 33
0540 1
0541 31
0542 34
0543 11
0544 35
0545 2
0546 33
0547 35
0548 2
0549 35
0550 8
0551 34
0552 31
0553 34
0554 3
0555 29
0556 35
0557 34
0558 1
0559 30
0560 35
0561 1
0562 2
0563 1
0564 34
0565 7
0566 6
0567 2
0568 3
0569 1
0570 2
0571 6
0572 3
0573 31
0574 34
0575 11
0576 13
0577 34
0578 30
0579 27
0580 5
0581 19
0582 24
0583 33
0584 34
0585 11
0586 18
0587 16
0588 9
0589 1
0590 32
0591 10
0592 1
0593 3
0594 16
0595 34
0596 3
0597 22
0598 27
0599 10
0600 32
0601 32
0602 23
0603 1
0604 29
0605 1
0606 13
0607 9
0608 4
0609 20
0610 8
0611 10
0612 2
0613 27
0614 33
0615 35
0616 35
0617 1
0618 2
0619 2
0620 1
0621 4
0622 5
